100 5
25 1000
10
7
13
19
26
3
5
9
16
16
12
19
23
20
8
19
2
12
17
9
11
18
29
3
6
17
16
16
9
21
27
23
11
14
8
5
8
16
31
9
5
5
7
18
16
1
27
36
30
13
10
9
14
18
2
6
7
18
28
3
13
19
10
9
20
25
25
36
6
5
15
25
9
8
18
13
14
3
23
6
26
16
11
7
41
35
26
9
15
3
1
2
22
27
20
11
12
10
9
17
35 35 0 1000 0 0
41 49 451 974 10 1
35 17 18 534 10 3
55 45 378 733 10 2
55 20 477 965 10 3
15 30 20 610 10 3
25 30 245 684 10 1
20 50 172 569 10 1
10 43 245 640 10 2
55 60 231 666 10 1
30 60 430 779 10 2
20 65 33 511 10 2
50 35 50 523 10 3
30 25 462 978 10 1
15 10 32 694 10 3
30 5 30 519 10 3
10 20 102 543 10 3
5 30 444 959 10 3
20 40 229 582 10 3
15 60 95 552 10 2
45 65 418 829 10 1
45 20 36 509 10 1
45 10 246 657 10 2
55 5 36 514 10 3
65 35 435 960 10 1
65 20 438 956 10 1
45 30 428 827 10 3
35 40 5 548 10 1
41 37 6 526 10 2
64 42 29 513 10 2
40 60 91 522 10 3
31 52 17 501 10 3
35 69 482 955 10 3
53 52 24 575 10 3
65 55 367 776 10 2
63 65 453 948 10 3
2 60 41 615 10 3
20 20 443 856 10 1
5 5 130 577 10 3
60 12 33 655 10 2
40 25 201 596 10 3
42 7 219 688 10 2
24 12 25 560 10 2
23 3 458 867 10 1
11 14 59 514 10 3
6 38 29 589 10 1
2 48 338 805 10 1
8 56 34 602 10 2
13 52 454 962 10 1
6 68 362 679 10 1
47 47 379 810 10 1
49 58 176 625 10 2
27 43 11 502 10 1
37 31 256 647 10 3
57 29 475 900 10 2
63 23 441 918 10 2
53 12 412 865 10 1
32 12 246 705 10 1
36 26 479 980 10 1
21 24 17 681 10 2
17 34 449 971 10 1
12 24 126 541 10 3
24 58 25 544 10 1
27 69 34 588 10 3
15 77 46 524 10 3
62 77 49 568 10 1
49 73 421 864 10 2
67 5 120 575 10 2
56 39 459 930 10 3
37 47 12 513 10 3
37 56 368 968 10 3
57 68 98 537 10 2
47 16 22 617 10 2
44 17 143 564 10 1
46 13 482 965 10 2
49 11 62 519 10 2
49 42 129 534 10 3
53 43 460 970 10 3
61 52 207 676 10 2
57 48 230 623 10 1
56 37 470 968 10 2
55 54 268 599 10 3
15 47 23 515 10 3
14 37 21 568 10 3
11 31 278 669 10 3
16 22 213 624 10 3
4 18 230 623 10 1
28 18 287 580 10 1
26 52 104 563 10 1
26 35 409 981 10 3
31 67 225 654 10 2
15 19 469 964 10 1
22 22 18 585 10 2
18 24 414 969 10 1
26 27 283 656 10 1
25 24 14 533 10 3
22 27 445 852 10 2
25 21 462 823 10 3
19 21 21 506 10 1
20 26 164 601 10 2
18 18 391 965 10 1
66 12 0 1000 5 4
33 26 0 1000 5 4
17 45 0 1000 5 4
25 36 0 1000 5 4
43 6 0 1000 5 4
0 0 0 0 0
0 1 0 0 0
0 1 0 0 0
1 0 0 0 0
0 0 0 1 0
0 0 0 0 0
0 0 0 0 0
0 0 1 0 0
0 0 0 0 0
0 0 1 0 0
0 0 1 0 0
0 1 0 0 0
0 0 0 0 0
0 1 0 0 0
0 0 0 0 1
0 0 0 1 0
0 0 1 0 0
0 0 1 0 0
0 0 1 0 0
0 0 0 0 0
0 0 0 0 0
0 0 0 0 1
0 0 0 0 1
0 0 0 0 0
0 0 0 0 0
0 1 0 0 0
0 0 0 0 0
0 1 0 0 0
1 0 0 0 0
0 0 1 0 0
0 0 1 0 0
0 0 1 0 0
0 0 0 1 0
1 0 0 0 0
0 0 0 1 0
0 0 1 0 0
0 0 0 0 0
0 1 0 0 0
1 0 0 0 0
0 1 0 0 0
0 0 0 0 1
0 1 0 0 0
0 0 0 0 0
0 1 0 0 0
0 0 0 0 0
0 0 0 0 0
0 0 1 0 0
0 0 0 0 0
0 0 0 0 0
0 0 0 0 0
0 0 0 1 0
0 0 0 0 0
0 1 0 0 0
1 0 0 0 0
1 0 0 0 0
0 0 0 0 0
0 0 0 0 0
0 0 0 0 0
0 1 0 0 0
0 0 0 0 0
0 0 0 1 0
0 0 0 0 0
0 0 1 0 0
0 0 1 0 0
0 0 0 0 0
0 0 1 0 0
1 0 0 0 0
0 1 0 0 0
0 0 0 1 0
0 0 1 0 0
0 0 0 1 0
0 0 0 0 1
0 0 0 0 0
0 0 0 0 1
0 0 0 0 1
0 1 0 0 0
0 1 0 0 0
0 1 0 0 0
0 0 0 0 0
0 1 0 0 0
0 0 0 1 0
0 0 1 0 0
0 0 1 0 0
0 0 0 1 0
0 0 0 1 0
0 0 0 0 0
0 0 0 0 0
0 0 0 0 0
0 0 0 1 0
0 0 1 0 0
0 0 0 0 0
0 1 0 0 0
0 0 0 0 0
0 0 0 0 0
0 1 0 0 0
0 0 0 1 0
0 1 0 0 0
0 0 0 0 0
0 0 0 1 0
0 0 0 0 0
